This is Ipopt version 3.10.0, running with linear solver ma27.

Number of nonzeros in equality constraint Jacobian...:        0
Number of nonzeros in inequality constraint Jacobian.:       48
Number of nonzeros in Lagrangian Hessian.............:        0

Total number of variables............................:        6
                     variables with only lower bounds:        0
                variables with lower and upper bounds:        6
                     variables with only upper bounds:        0
Total number of equality constraints.................:        0
Total number of inequality constraints...............:        8
        inequality constraints with only lower bounds:        0
   inequality constraints with lower and upper bounds:        0
        inequality constraints with only upper bounds:        8

iter    objective    inf_pr   inf_du lg(mu)  ||d||  lg(rg) alpha_du alpha_pr  ls
   0  7.6568542e+00 2.25e+00 2.83e+00   0.0 0.00e+00    -  0.00e+00 0.00e+00   0
   1r 7.6568542e+00 2.25e+00 9.99e+02   0.4 0.00e+00    -  0.00e+00 2.67e-07R 15
   2r 7.6647791e+00 2.25e+00 9.94e+02   0.9 1.29e+00    -  1.00e+00 1.91e-03f  3
   3r 7.6856414e+00 2.24e+00 1.03e+02  -0.8 1.32e-02    -  1.00e+00 8.96e-01f  1
   4r 7.6732619e+00 2.24e+00 1.54e+00  -2.6 1.02e-02    -  1.00e+00 9.88e-01f  1
   5r 7.7670018e+00 2.20e+00 8.20e-05  -2.5 2.45e-02    -  1.00e+00 1.00e+00H  1
   6r 7.6628497e+00 2.25e+00 9.90e-04  -4.5 2.72e-02    -  9.97e-01 1.00e+00f  1

Number of Iterations....: 6

                                   (scaled)                 (unscaled)
Objective...............:   7.6646584719240698e+00    7.6646584719240698e+00
Dual infeasibility......:   2.7662656862048607e-05    2.7662656862048607e-05
Constraint violation....:   2.2467420799623827e+00    2.2467420799623827e+00
Complementarity.........:   2.4425761509919542e-05    2.4425761509919542e-05
Overall NLP error.......:   2.2467420799623827e+00    2.2467420799623827e+00


Number of objective function evaluations             = 28
Number of objective gradient evaluations             = 3
Number of equality constraint evaluations            = 0
Number of inequality constraint evaluations          = 28
Number of equality constraint Jacobian evaluations   = 0
Number of inequality constraint Jacobian evaluations = 9
Number of Lagrangian Hessian evaluations             = 0
Total CPU secs in IPOPT (w/o function evaluations)   =      0.008
Total CPU secs in NLP function evaluations           =      0.002

EXIT: Converged to a point of local infeasibility. Problem may be infeasible.
